c turning on binary mode checking
c parsing input formula with 202048 variables and 780975 clauses
c finished parsing, read 1801080 bytes from proof file
c detected empty clause; start verification via backward checking
c 3028 of 780975 clauses in core                            
c 999 of 74320 lemmas in core using 25718 resolution steps
c 0 RAT lemmas in core; 86 redundant literals in core lemmas
s VERIFIED
c verification time: 0.887 seconds
